letting n =  10
letting blocks =  [[1, 8], [2, 4], [2, 7], [3, 1], [3, 7], [4, 2], [5, 1], [5, 2], [5, 4], [5, 7], [7, 2], [7, 4], [7, 5], [7, 8], [7, 9], [8, 3], [8, 9], [9, 1], [9, 5], [9, 8], [10, 1], [10, 4], [10, 5], [10, 9]]
